p cnf 162 124
d 0.875 0.125
d 0.875 0.125
d 0.875 0.125
d 0.875 0.125
d 0.875 0.125
d 0.875 0.125
d 0.875 0.125
d 0.875 0.125
d 0.875 0.125
d 0.875 0.125
d 0.875 0.125
d 0.875 0.125
d 0.875 0.125
d 0.875 0.125
d 0.875 0.125
d 0.875 0.125
d 0.875 0.125
d 0.875 0.125
d 0.875 0.125
d 0.875 0.125
d 0.875 0.125
d 0.875 0.125
d 0.875 0.125
d 0.875 0.125
d 0.875 0.125
d 0.875 0.125
d 0.875 0.125
d 0.875 0.125
d 0.875 0.125
d 0.875 0.125
d 0.875 0.125
d 0.875 0.125
d 0.875 0.125
d 0.875 0.125
d 0.875 0.125
d 0.875 0.125
d 0.875 0.125
d 0.875 0.125
d 0.875 0.125
d 0.875 0.125
d 0.875 0.125
d 0.875 0.125
d 0.875 0.125
d 0.875 0.125
d 0.875 0.125
d 0.875 0.125
d 0.875 0.125
d 0.875 0.125
d 0.875 0.125
d 0.875 0.125
d 0.875 0.125
d 0.875 0.125
d 0.875 0.125
d 0.875 0.125
d 0.875 0.125
d 0.875 0.125
d 0.875 0.125
d 0.875 0.125
d 0.875 0.125
d 0.875 0.125
d 0.875 0.125
126
-128
124 -123 -0
123 -124 -0
142 -150 -2
150 -142 -2
155 -134 -4
134 -155 -4
144 -141 -6
141 -144 -6
154 -146 -8
146 -154 -8
124 -155 -10
155 -124 -10
137 -134 -12
134 -137 -12
133 -160 -14
160 -133 -14
147 -154 -16
154 -147 -16
136 -142 -18
142 -136 -18
129 -161 -20
161 -129 -20
135 -123 -22
123 -135 -22
129 -135 -24
135 -129 -24
152 -134 -26
134 -152 -26
130 -141 -28
141 -130 -28
159 -156 -30
156 -159 -30
137 -152 -32
152 -137 -32
143 -140 -34
140 -143 -34
148 -150 -36
150 -148 -36
133 -160 -38
160 -133 -38
148 -153 -40
153 -148 -40
130 -161 -42
161 -130 -42
125 -128 -44
128 -125 -44
137 -152 -46
152 -137 -46
126 -127 -48
127 -126 -48
161 -148 -50
148 -161 -50
144 -156 -52
156 -144 -52
122 -123 -54
123 -122 -54
133 -128 -56
128 -133 -56
125 -133 -58
133 -125 -58
138 -158 -60
158 -138 -60
160 -145 -62
145 -160 -62
151 -135 -64
135 -151 -64
132 -149 -66
149 -132 -66
159 -156 -68
156 -159 -68
160 -145 -70
145 -160 -70
147 -149 -72
149 -147 -72
151 -129 -74
129 -151 -74
150 -153 -76
153 -150 -76
130 -126 -78
126 -130 -78
130 -155 -80
155 -130 -80
159 -157 -82
157 -159 -82
157 -126 -84
126 -157 -84
143 -140 -86
140 -143 -86
123 -122 -88
122 -123 -88
159 -156 -90
156 -159 -90
136 -146 -92
146 -136 -92
153 -138 -94
138 -153 -94
125 -129 -96
129 -125 -96
140 -145 -98
145 -140 -98
159 -157 -100
157 -159 -100
133 -131 -102
131 -133 -102
125 -161 -104
161 -125 -104
143 -131 -106
131 -143 -106
139 -161 -108
161 -139 -108
141 -153 -110
153 -141 -110
140 -145 -112
145 -140 -112
139 -148 -114
148 -139 -114
146 -138 -116
138 -146 -116
136 -154 -118
154 -136 -118
159 -156 -120
156 -159 -120